loop__main__1394:
(set-info :source |printed by MathSAT|)
(declare-fun |main::local_14| () (_ BitVec 32))
(declare-fun |main::local_18| () (_ BitVec 32))
(assert (let ((.def_73 (= |main::local_14| (_ bv0 32))))(let ((.def_65 (bvxor |main::local_14| |main::local_18|)))(let ((.def_66 (bvand (_ bv1 32) .def_65)))(let ((.def_67 (= .def_66 (_ bv0 32))))(let ((.def_72 (not .def_67)))(let ((.def_300 (or .def_72 .def_73))).def_300)))))))
